language ESSENCE' 1.0
$ minion Nodes: 1
$ minion TotalTime: 0.000806
$ Savile Row TotalTime: 0.284
letting pain_tuple1 be [2]
letting pain_tuple3_tuple2 be [4]
letting pain_tuple3_tuple1 be [3]
letting pain_tuple2_tuple1 be [1]
letting pain_tuple2_tuple2 be [2]
